50
100
100
99
98
97
95
94
93
93
93
92
92
92
92
85
85
83
81
79
77
76
75
73
71
70
70
69
66
63
60
60
59
59
58
58
57
49
48
47
45
42
41
41
40
38
38
36
36
35
34
30
